(set-logic QF_BV)
(define-fun implies ((p Bool) (q Bool)) Bool (or (not p) q))

(declare-const eShop Bool)
(declare-const Storefront Bool)
(declare-const Catalog Bool)
(declare-const ProductInformation Bool)
(declare-const Producttype Bool)
(declare-const Producttype_1 Bool)
(declare-const Eletronicgoods Bool)
(declare-const Physicalgoods Bool)
(declare-const Services Bool)
(declare-const Basicinformation Bool)
(declare-const Detailedinformation Bool)
(declare-const Warrantyinformation Bool)
(declare-const Customerreviews Bool)
(declare-const Associatedassets Bool)
(declare-const Associatedassets_1 Bool)
(declare-const Documents Bool)
(declare-const Mediafiles Bool)
(declare-const Mediafiles_1 Bool)
(declare-const Image Bool)
(declare-const Image_1 Bool)
(declare-const Thumbnail Bool)
(declare-const a2Dimage Bool)
(declare-const a3Dimage Bool)
(declare-const a360degreesimage Bool)
(declare-const Differentperspectives Bool)
(declare-const Gallery Bool)
(declare-const Video Bool)
(declare-const Sound Bool)
(declare-const Productvariants Bool)
(declare-const Complexproductconfiguration Bool)
(declare-const Size Bool)
(declare-const Weight Bool)
(declare-const Availability Bool)
(declare-const Customfields_1 Bool)
(declare-const Categories Bool)
(declare-const Catalog_1 Bool)
(declare-const Categories_1 Bool)
(declare-const Multi_level Bool)
(declare-const Multipleclassification Bool)
(declare-const Multiplecatalogs Bool)
(declare-const Searching Bool)
(declare-const Searching_1 Bool)
(declare-const Basicsearch Bool)
(declare-const Advancedsearch Bool)
(declare-const Browsing Bool)
(declare-const Productpage Bool)
(declare-const Categorypage Bool)
(declare-const Indexpage Bool)
(declare-const Sortingfilters Bool)
(declare-const Sortingfilters_1 Bool)
(declare-const Price Bool)
(declare-const Quality Bool)
(declare-const Price_Qualityratio Bool)
(declare-const Manufacturername Bool)
(declare-const Customfilter Bool)
(declare-const Customviews Bool)
(declare-const Seasonalproductviews Bool)
(declare-const Personalizedviews Bool)
(declare-const Buypaths Bool)
(declare-const Shoppingcart Bool)
(declare-const Inventorymanagementpolicy Bool)
(declare-const Cartcontentpage Bool)
(declare-const Cartsummarypage Bool)
(declare-const Cartsaveaftersession Bool)
(declare-const Checkout Bool)
(declare-const Checkouttype Bool)
(declare-const Checkouttype_1 Bool)
(declare-const Registeredcheckout Bool)
(declare-const Quickcheckout Bool)
(declare-const Enableprofileupdateoncheckout Bool)
(declare-const Guestcheckout Bool)
(declare-const Taxationoptions Bool)
(declare-const Taxationoptions_1 Bool)
(declare-const Customtaxation Bool)
(declare-const Type_0 Bool)
(declare-const Type_1 Bool)
(declare-const Fixed_ratetaxation Bool)
(declare-const Rule_basedtaxation Bool)
(declare-const Taxcodes Bool)
(declare-const Address Bool)
(declare-const Shipping Bool)
(declare-const Billing Bool)
(declare-const Resolution Bool)
(declare-const Resolution_1 Bool)
(declare-const Country Bool)
(declare-const Region Bool)
(declare-const City Bool)
(declare-const Ammountspecification Bool)
(declare-const Ammountspecification_1 Bool)
(declare-const Surcharge Bool)
(declare-const Percentage Bool)
(declare-const Taxgateways Bool)
(declare-const Taxgateways_1 Bool)
(declare-const CertiTAX Bool)
(declare-const CyberSource Bool)
(declare-const Customtaxgateway Bool)
(declare-const Paymentoptions Bool)
(declare-const Paymenttypes Bool)
(declare-const Paymenttypes_1 Bool)
(declare-const COD Bool)
(declare-const Creditcard Bool)
(declare-const Debitcard Bool)
(declare-const Eletroniccheque Bool)
(declare-const Faxmailorder Bool)
(declare-const Purchaseorder Bool)
(declare-const Giftcertificate Bool)
(declare-const Phoneorder Bool)
(declare-const Custompaymenttype Bool)
(declare-const Frauddetection Bool)
(declare-const Paymentgateways Bool)
(declare-const Paymentgateways_1 Bool)
(declare-const Authorize_Net Bool)
(declare-const CyberSource_1 Bool)
(declare-const Shippingoptions Bool)
(declare-const Shippingcostcalculation Bool)
(declare-const Qualityofserviceselection Bool)
(declare-const Carrierselection Bool)
(declare-const Giftoptions Bool)
(declare-const Multipleshipments Bool)
(declare-const Homepage Bool)
(declare-const Homepage_1 Bool)
(declare-const Staticcontent Bool)
(declare-const Dynamiccontent Bool)
(declare-const Contenttype Bool)
(declare-const Contenttype_1 Bool)
(declare-const Welcomemessage Bool)
(declare-const Specialoffers Bool)
(declare-const Variationsource Bool)
(declare-const Variationsource_1 Bool)
(declare-const Timedependent Bool)
(declare-const Personalized Bool)
(declare-const Registration Bool)
(declare-const Registrationenforcement Bool)
(declare-const Registrationenforcement_1 Bool)
(declare-const Registertobrowse Bool)
(declare-const Registertobuy Bool)
(declare-const None Bool)
(declare-const Registrationinformation Bool)
(declare-const Logincredentials Bool)
(declare-const Shippingaddress Bool)
(declare-const Multipleshippingaddresses Bool)
(declare-const Billingaddress Bool)
(declare-const Multiplebillingaddresses Bool)
(declare-const Creditcardinformation Bool)
(declare-const Cardholdername Bool)
(declare-const Cardnumber Bool)
(declare-const Expirydate Bool)
(declare-const Securityinformation Bool)
(declare-const Demographics Bool)
(declare-const Demographics_1 Bool)
(declare-const Age Bool)
(declare-const Income Bool)
(declare-const Education Bool)
(declare-const CustomDemographicfield Bool)
(declare-const PersonalInformation Bool)
(declare-const Preferences Bool)
(declare-const Preferences_1 Bool)
(declare-const Sitelayout Bool)
(declare-const Listsize Bool)
(declare-const Language Bool)
(declare-const Reminders Bool)
(declare-const Quickcheckoutprofile Bool)
(declare-const Customfields Bool)
(declare-const Userbehaviourtrackinginformation Bool)
(declare-const Wishlist Bool)
(declare-const Wishlistsaveaftersession Bool)
(declare-const E_mailwishlist Bool)
(declare-const Multiplewishlists Bool)
(declare-const Permissions Bool)
(declare-const Permissions_1 Bool)
(declare-const Publicaccess Bool)
(declare-const Restrictedaccess Bool)
(declare-const Privateaccess Bool)
(assert
(and eShop(and(= Eletronicgoods Producttype_1)
(= Physicalgoods Producttype_1)
(= Services Producttype_1)
(= Producttype_1 Producttype)
(and(= Producttype ProductInformation)
(= Basicinformation ProductInformation))
(and(= Thumbnail Image_1)
(= a2Dimage Image_1)
(= a3Dimage Image_1)
(= a360degreesimage Image_1)
(= Differentperspectives Image_1)
(= Gallery Image_1))
(= Image_1 Image)
(and(= Image Mediafiles_1)
(= Video Mediafiles_1)
(= Sound Mediafiles_1))
(= Mediafiles_1 Mediafiles)
(and(= Documents Associatedassets_1)
(= Mediafiles Associatedassets_1))
(= Associatedassets_1 Associatedassets)
(implies Complexproductconfiguration Productvariants)
(and(implies Detailedinformation ProductInformation)
(implies Warrantyinformation ProductInformation)
(implies Customerreviews ProductInformation)
(implies Associatedassets ProductInformation)
(implies Productvariants ProductInformation)
(implies Size ProductInformation)
(implies Weight ProductInformation)
(implies Availability ProductInformation)
(implies Customfields_1 ProductInformation))
(= ProductInformation Catalog)
(and(implies Multi_level Categories_1)
(implies Multipleclassification Categories_1))
(implies Categories_1 Catalog_1)
(= Catalog_1 Categories)
(and(= Basicsearch Searching_1)
(= Advancedsearch Searching_1))
(= Searching_1 Searching)
(= Productpage Browsing)
(and(= Price Sortingfilters_1)
(= Quality Sortingfilters_1)
(= Price_Qualityratio Sortingfilters_1)
(= Manufacturername Sortingfilters_1)
(= Customfilter Sortingfilters_1))
(= Sortingfilters_1 Sortingfilters)
(implies Sortingfilters Indexpage)
(and(implies Categorypage Browsing)
(implies Indexpage Browsing))
(and(implies Seasonalproductviews Customviews)
(implies Personalizedviews Customviews))
(and(implies Categories Catalog)
(implies Multiplecatalogs Catalog)
(implies Searching Catalog)
(implies Browsing Catalog)
(implies Customviews Catalog))
(and(= Inventorymanagementpolicy Shoppingcart)
(= Cartcontentpage Shoppingcart))
(and(implies Cartsummarypage Shoppingcart)
(implies Cartsaveaftersession Shoppingcart))
(implies Enableprofileupdateoncheckout Quickcheckout)
(implies Quickcheckout Registeredcheckout)
(and(= Registeredcheckout Checkouttype_1)
(= Guestcheckout Checkouttype_1))
(= Checkouttype_1 Checkouttype)
(= Shipping Address)
(implies Billing Address)
(and(= Taxcodes Rule_basedtaxation)
(= Address Rule_basedtaxation))
(and(= Country Resolution_1)
(= Region Resolution_1)
(= City Resolution_1))
(= Resolution_1 Resolution)
(implies Resolution Rule_basedtaxation)
(and(= Fixed_ratetaxation Type_1)
(= Rule_basedtaxation Type_1))
(= Type_1 Type_0)
(and(= Surcharge Ammountspecification_1)
(= Percentage Ammountspecification_1))
(= Ammountspecification_1 Ammountspecification)
(and(= Type_0 Customtaxation)
(= Ammountspecification Customtaxation))
(and(= CertiTAX Taxgateways_1)
(= CyberSource Taxgateways_1)
(= Customtaxgateway Taxgateways_1))
(= Taxgateways_1 Taxgateways)
(and(= Customtaxation Taxationoptions_1)
(= Taxgateways Taxationoptions_1))
(= Taxationoptions_1 Taxationoptions)
(and(= COD Paymenttypes_1)
(= Creditcard Paymenttypes_1)
(= Debitcard Paymenttypes_1)
(= Eletroniccheque Paymenttypes_1)
(= Faxmailorder Paymenttypes_1)
(= Purchaseorder Paymenttypes_1)
(= Giftcertificate Paymenttypes_1)
(= Phoneorder Paymenttypes_1)
(= Custompaymenttype Paymenttypes_1))
(= Paymenttypes_1 Paymenttypes)
(= Paymenttypes Paymentoptions)
(and(= Authorize_Net Paymentgateways_1)
(= CyberSource_1 Paymentgateways_1))
(= Paymentgateways_1 Paymentgateways)
(and(implies Frauddetection Paymentoptions)
(implies Paymentgateways Paymentoptions))
(and(= Checkouttype Checkout)
(= Taxationoptions Checkout)
(= Paymentoptions Checkout))
(= Shippingcostcalculation Shippingoptions)
(and(implies Qualityofserviceselection Shippingoptions)
(implies Carrierselection Shippingoptions)
(implies Giftoptions Shippingoptions)
(implies Multipleshipments Shippingoptions))
(implies Shippingoptions Checkout)
(and(= Shoppingcart Buypaths)
(= Checkout Buypaths))
(and(= Catalog Storefront)
(= Buypaths Storefront))
(and(= Welcomemessage Contenttype_1)
(= Specialoffers Contenttype_1))
(= Contenttype_1 Contenttype)
(and(= Timedependent Variationsource_1)
(= Personalized Variationsource_1))
(= Variationsource_1 Variationsource)
(and(= Contenttype Dynamiccontent)
(= Variationsource Dynamiccontent))
(and(= Staticcontent Homepage_1)
(= Dynamiccontent Homepage_1))
(= Homepage_1 Homepage)
(and(= Registertobrowse Registrationenforcement_1)
(= Registertobuy Registrationenforcement_1)
(= None Registrationenforcement_1))
(= Registrationenforcement_1 Registrationenforcement)
(= Logincredentials Registrationinformation)
(implies Multipleshippingaddresses Shippingaddress)
(implies Multiplebillingaddresses Billingaddress)
(and(= Cardholdername Creditcardinformation)
(= Cardnumber Creditcardinformation)
(= Expirydate Creditcardinformation))
(implies Securityinformation Creditcardinformation)
(and(= Age Demographics_1)
(= Income Demographics_1)
(= Education Demographics_1)
(= CustomDemographicfield Demographics_1))
(= Demographics_1 Demographics)
(and(= Sitelayout Preferences_1)
(= Listsize Preferences_1)
(= Language Preferences_1))
(= Preferences_1 Preferences)
(and(implies Shippingaddress Registrationinformation)
(implies Billingaddress Registrationinformation)
(implies Creditcardinformation Registrationinformation)
(implies Demographics Registrationinformation)
(implies PersonalInformation Registrationinformation)
(implies Preferences Registrationinformation)
(implies Reminders Registrationinformation)
(implies Quickcheckoutprofile Registrationinformation)
(implies Customfields Registrationinformation))
(and(= Registrationenforcement Registration)
(= Registrationinformation Registration))
(implies Userbehaviourtrackinginformation Registration)
(and(= Publicaccess Permissions_1)
(= Restrictedaccess Permissions_1)
(= Privateaccess Permissions_1))
(= Permissions_1 Permissions)
(and(implies Wishlistsaveaftersession Wishlist)
(implies E_mailwishlist Wishlist)
(implies Multiplewishlists Wishlist)
(implies Permissions Wishlist))
(and(implies Homepage Storefront)
(implies Registration Storefront)
(implies Wishlist Storefront))
(= Storefront eShop)))
)